(set-info :source |printed by MathSAT|)
(declare-fun A_23 () Int)
(declare-fun .x.787 () Int)
(declare-fun B_23 () (Array Int Int))
(declare-fun .x.788 () (Array Int Int))
(declare-fun C_23 () (Array Int Int))
(declare-fun .x.789 () (Array Int Int))
(declare-fun D_23 () (Array Int (Array Int Int)))
(declare-fun .x.790 () (Array Int (Array Int Int)))
(declare-fun E_23 () (Array Int (Array Int Int)))
(declare-fun .x.791 () (Array Int (Array Int Int)))
(declare-fun F_23 () Int)
(declare-fun .x.792 () Int)
(declare-fun G_23 () Int)
(declare-fun .x.793 () Int)
(declare-fun H_23 () (Array Int Int))
(declare-fun .x.794 () (Array Int Int))
(declare-fun I_23 () (Array Int Int))
(declare-fun .x.795 () (Array Int Int))
(declare-fun J_23 () Int)
(declare-fun .x.796 () Int)
(declare-fun K_23 () Int)
(declare-fun .x.797 () Int)
(declare-fun L_23 () Int)
(declare-fun .x.798 () Int)
(declare-fun M_23 () Int)
(declare-fun .x.799 () Int)
(declare-fun N_23 () Int)
(declare-fun .x.800 () Int)
(declare-fun O_23 () Int)
(declare-fun .x.801 () Int)
(declare-fun P_23 () Int)
(declare-fun .x.802 () Int)
(declare-fun Q_23 () Int)
(declare-fun .x.803 () Int)
(declare-fun R_23 () Int)
(declare-fun .x.804 () Int)
(declare-fun S_23 () Int)
(declare-fun .x.805 () Int)
(declare-fun T_23 () Int)
(declare-fun .x.806 () Int)
(declare-fun U_23 () Int)
(declare-fun .x.807 () Int)
(declare-fun V_23 () Int)
(declare-fun .x.808 () Int)
(declare-fun W_23 () Int)
(declare-fun .x.809 () Int)
(declare-fun X_23 () Int)
(declare-fun .x.810 () Int)
(declare-fun Y_23 () Int)
(declare-fun .x.811 () Int)
(declare-fun Z_23 () Int)
(declare-fun .x.812 () Int)
(declare-fun A1_23 () Int)
(declare-fun .x.813 () Int)
(declare-fun B1_23 () Int)
(declare-fun .x.814 () Int)
(declare-fun C1_23 () Int)
(declare-fun .x.815 () Int)
(declare-fun D1_23 () Int)
(declare-fun .x.816 () Int)
(declare-fun E1_23 () Int)
(declare-fun .x.817 () Int)
(declare-fun F1_23 () Int)
(declare-fun .x.818 () Int)
(declare-fun G1_23 () Int)
(declare-fun .x.819 () Int)
(declare-fun H1_23 () Int)
(declare-fun .x.820 () Int)
(declare-fun J1_13 () Bool)
(declare-fun I1_23 () Bool)
(declare-fun .loc.5 () Bool)
(declare-fun .loc.9 () Bool)
(declare-fun .loc.6 () Bool)
(declare-fun .loc.10 () Bool)
(declare-fun .loc.7 () Bool)
(declare-fun .loc.11 () Bool)
(declare-fun .loc.8 () Bool)
(declare-fun .loc.12 () Bool)
(declare-fun J1_0 () (Array Int Int))
(define-fun .def_8 () Int (! A_23 :next |.x.787|))
(define-fun .def_10 () (Array Int Int) (! B_23 :next |.x.788|))
(define-fun .def_12 () (Array Int Int) (! C_23 :next |.x.789|))
(define-fun .def_14 () (Array Int (Array Int Int)) (! D_23 :next |.x.790|))
(define-fun .def_16 () (Array Int (Array Int Int)) (! E_23 :next |.x.791|))
(define-fun .def_18 () Int (! F_23 :next |.x.792|))
(define-fun .def_20 () Int (! G_23 :next |.x.793|))
(define-fun .def_22 () (Array Int Int) (! H_23 :next |.x.794|))
(define-fun .def_24 () (Array Int Int) (! I_23 :next |.x.795|))
(define-fun .def_26 () Int (! J_23 :next |.x.796|))
(define-fun .def_28 () Int (! K_23 :next |.x.797|))
(define-fun .def_30 () Int (! L_23 :next |.x.798|))
(define-fun .def_32 () Int (! M_23 :next |.x.799|))
(define-fun .def_34 () Int (! N_23 :next |.x.800|))
(define-fun .def_36 () Int (! O_23 :next |.x.801|))
(define-fun .def_38 () Int (! P_23 :next |.x.802|))
(define-fun .def_40 () Int (! Q_23 :next |.x.803|))
(define-fun .def_42 () Int (! R_23 :next |.x.804|))
(define-fun .def_44 () Int (! S_23 :next |.x.805|))
(define-fun .def_46 () Int (! T_23 :next |.x.806|))
(define-fun .def_48 () Int (! U_23 :next |.x.807|))
(define-fun .def_50 () Int (! V_23 :next |.x.808|))
(define-fun .def_52 () Int (! W_23 :next |.x.809|))
(define-fun .def_54 () Int (! X_23 :next |.x.810|))
(define-fun .def_56 () Int (! Y_23 :next |.x.811|))
(define-fun .def_58 () Int (! Z_23 :next |.x.812|))
(define-fun .def_60 () Int (! A1_23 :next |.x.813|))
(define-fun .def_62 () Int (! B1_23 :next |.x.814|))
(define-fun .def_64 () Int (! C1_23 :next |.x.815|))
(define-fun .def_66 () Int (! D1_23 :next |.x.816|))
(define-fun .def_68 () Int (! E1_23 :next |.x.817|))
(define-fun .def_70 () Int (! F1_23 :next |.x.818|))
(define-fun .def_72 () Int (! G1_23 :next |.x.819|))
(define-fun .def_74 () Int (! H1_23 :next |.x.820|))
(define-fun .def_76 () Bool (! J1_13 :next |I1_23|))
(define-fun .def_78 () Bool (! .loc.5 :next |.loc.9|))
(define-fun .def_80 () Bool (! .loc.6 :next |.loc.10|))
(define-fun .def_82 () Bool (! .loc.7 :next |.loc.11|))
(define-fun .def_84 () Bool (! .loc.8 :next |.loc.12|))
(define-fun .def_110 () (Array Int Int) (! J1_0 :next |.xtv.1|))
(define-fun .def_103 () Bool (not .def_80))
(define-fun .def_722 () Bool (and .def_78 .def_103))
(define-fun .def_94 () Bool (not .def_82))
(define-fun .def_723 () Bool (and .def_94 .def_722))
(define-fun .def_105 () Bool (not .def_84))
(define-fun .def_724 () Bool (and .def_105 .def_723))
(define-fun .def_716 () Bool (= .def_14 .def_16))
(define-fun .def_715 () Bool (not .def_76))
(define-fun .def_717 () Bool (and .def_715 .def_716))
(define-fun .def_714 () Bool (= .def_26 .def_28))
(define-fun .def_718 () Bool (and .def_714 .def_717))
(define-fun .def_713 () Bool (= .def_18 .def_20))
(define-fun .def_719 () Bool (and .def_713 .def_718))
(define-fun .def_712 () Bool (= .def_22 .def_24))
(define-fun .def_720 () Bool (and .def_712 .def_719))
(define-fun .def_711 () Bool (= .def_10 .def_12))
(define-fun .def_721 () Bool (and .def_711 .def_720))
(define-fun .def_725 () Bool (! (and .def_721 .def_724) :init true))
(define-fun .def_708 () Bool (= .def_28 .x.797))
(define-fun .def_706 () Bool (= .def_24 .x.795))
(define-fun .def_704 () Bool (= .def_20 .x.793))
(define-fun .def_702 () Bool (= .def_16 .x.791))
(define-fun .def_700 () Bool (= .def_8 .x.787))
(define-fun .def_699 () Bool (= .def_12 .x.789))
(define-fun .def_701 () Bool (and .def_699 .def_700))
(define-fun .def_703 () Bool (and .def_701 .def_702))
(define-fun .def_705 () Bool (and .def_703 .def_704))
(define-fun .def_707 () Bool (and .def_705 .def_706))
(define-fun .def_709 () Bool (and .def_707 .def_708))
(define-fun .def_173 () Bool (= .def_10 .x.788))
(define-fun .def_659 () Bool (and I1_23 .def_173))
(define-fun .def_172 () Bool (= .def_32 .x.799))
(define-fun .def_660 () Bool (and .def_172 .def_659))
(define-fun .def_175 () Bool (= .def_34 .x.800))
(define-fun .def_661 () Bool (and .def_175 .def_660))
(define-fun .def_184 () Bool (= .def_50 .x.808))
(define-fun .def_662 () Bool (and .def_184 .def_661))
(define-fun .def_192 () Bool (= .def_58 .x.812))
(define-fun .def_663 () Bool (and .def_192 .def_662))
(define-fun .def_196 () Bool (= .def_62 .x.814))
(define-fun .def_664 () Bool (and .def_196 .def_663))
(define-fun .def_198 () Bool (= .def_64 .x.815))
(define-fun .def_665 () Bool (and .def_198 .def_664))
(define-fun .def_200 () Bool (= .def_66 .x.816))
(define-fun .def_666 () Bool (and .def_200 .def_665))
(define-fun .def_89 () Bool (= .def_68 .x.817))
(define-fun .def_667 () Bool (and .def_89 .def_666))
(define-fun .def_209 () Bool (not .def_78))
(define-fun .def_668 () Bool (and .def_209 .def_667))
(define-fun .def_652 () (Array Int Int) (store .def_10 .def_50 0))
(define-fun .def_653 () (Array Int Int) (store .def_652 .def_64 0))
(define-fun .def_654 () (Array Int Int) (store .def_653 .def_34 0))
(define-fun .def_655 () Bool (= .x.788 .def_654))
(define-fun .def_651 () Bool (= .x.816 0))
(define-fun .def_656 () Bool (and .def_651 .def_655))
(define-fun .def_657 () Bool (or .def_76 .def_656))
(define-fun .def_647 () Bool (= .x.816 .x.817))
(define-fun .def_648 () Bool (or I1_23 .def_647))
(define-fun .def_649 () Bool (and .def_78 .def_648))
(define-fun .def_99 () Bool (= .def_76 I1_23))
(define-fun .def_650 () Bool (and .def_99 .def_649))
(define-fun .def_658 () Bool (and .def_650 .def_657))
(define-fun .def_669 () Bool (or .def_658 .def_668))
(define-fun .def_645 () Bool (and .def_80 .loc.11))
(define-fun .def_339 () Bool (not .loc.10))
(define-fun .def_646 () Bool (and .def_339 .def_645))
(define-fun .def_670 () Bool (and .def_646 .def_669))
(define-fun .def_479 () Bool (= .def_38 0))
(define-fun .def_643 () Bool (or .def_76 .def_479))
(define-fun .def_174 () Bool (and .def_172 .def_173))
(define-fun .def_176 () Bool (and .def_174 .def_175))
(define-fun .def_602 () Bool (and .def_176 .def_184))
(define-fun .def_603 () Bool (and .def_192 .def_602))
(define-fun .def_604 () Bool (and .def_196 .def_603))
(define-fun .def_605 () Bool (and .def_198 .def_604))
(define-fun .def_606 () Bool (and .def_200 .def_605))
(define-fun .def_607 () Bool (and .def_89 .def_606))
(define-fun .def_638 () Bool (and .def_78 .def_607))
(define-fun .def_639 () Bool (and .loc.10 .def_638))
(define-fun .def_640 () Bool (and .def_99 .def_639))
(define-fun .def_101 () Bool (not .loc.11))
(define-fun .def_641 () Bool (and .def_101 .def_640))
(define-fun .def_642 () Bool (and .def_103 .def_641))
(define-fun .def_644 () Bool (and .def_642 .def_643))
(define-fun .def_671 () Bool (or .def_644 .def_670))
(define-fun .def_190 () Bool (= .def_56 .x.811))
(define-fun .def_86 () Bool (= .def_38 .x.802))
(define-fun .def_634 () Bool (and .def_86 .def_190))
(define-fun .def_194 () Bool (= .def_60 .x.813))
(define-fun .def_635 () Bool (and .def_194 .def_634))
(define-fun .def_91 () Bool (= .def_70 .x.818))
(define-fun .def_636 () Bool (and .def_91 .def_635))
(define-fun .def_97 () Bool (not .loc.9))
(define-fun .def_637 () Bool (and .def_97 .def_636))
(define-fun .def_672 () Bool (and .def_637 .def_671))
(define-fun .def_619 () Int (* 4 .def_52))
(define-fun .def_628 () Int (+ .def_619 .def_62))
(define-fun .def_379 () (Array Int Int) (select .def_14 .def_34))
(define-fun .def_629 () Int (select .def_379 .def_628))
(define-fun .def_630 () Bool (= .x.811 .def_629))
(define-fun .def_625 () Bool (= .x.802 .x.818))
(define-fun .def_621 () Int (+ .def_619 .def_58))
(define-fun .def_241 () (Array Int Int) (select .def_14 .def_50))
(define-fun .def_622 () Int (select .def_241 .def_621))
(define-fun .def_623 () Bool (= .x.813 .def_622))
(define-fun .def_551 () Bool (<= 100000 .def_52))
(define-fun .def_617 () Bool (not .def_551))
(define-fun .def_614 () Bool (= .x.811 .x.813))
(define-fun .def_615 () Int (ite .def_614 1 0))
(define-fun .def_616 () Bool (= .x.818 .def_615))
(define-fun .def_618 () Bool (and .def_616 .def_617))
(define-fun .def_624 () Bool (and .def_618 .def_623))
(define-fun .def_626 () Bool (and .def_624 .def_625))
(define-fun .def_631 () Bool (and .def_626 .def_630))
(define-fun .def_632 () Bool (or .def_76 .def_631))
(define-fun .def_608 () Bool (and .def_209 .def_607))
(define-fun .def_609 () Bool (and .loc.9 .def_608))
(define-fun .def_610 () Bool (and .def_339 .def_609))
(define-fun .def_611 () Bool (and .def_99 .def_610))
(define-fun .def_612 () Bool (and .def_101 .def_611))
(define-fun .def_613 () Bool (and .def_103 .def_612))
(define-fun .def_633 () Bool (and .def_613 .def_632))
(define-fun .def_673 () Bool (or .def_633 .def_672))
(define-fun .def_186 () Bool (= .def_52 .x.809))
(define-fun .def_182 () Bool (= .def_48 .x.807))
(define-fun .def_600 () Bool (and .def_182 .def_186))
(define-fun .def_601 () Bool (and .def_84 .def_600))
(define-fun .def_674 () Bool (and .def_601 .def_673))
(define-fun .def_595 () Int (* (- 1) .x.809))
(define-fun .def_596 () Int (+ .def_52 .def_595))
(define-fun .def_597 () Bool (= .def_596 (- 1)))
(define-fun .def_598 () Bool (or I1_23 .def_597))
(define-fun .def_177 () Bool (and .def_86 .def_176))
(define-fun .def_581 () Bool (and .def_177 .def_184))
(define-fun .def_582 () Bool (and .def_192 .def_581))
(define-fun .def_583 () Bool (and .def_196 .def_582))
(define-fun .def_584 () Bool (and .def_198 .def_583))
(define-fun .def_585 () Bool (and .def_200 .def_584))
(define-fun .def_586 () Bool (and .def_89 .def_585))
(define-fun .def_587 () Bool (and .def_91 .def_586))
(define-fun .def_588 () Bool (and .def_209 .def_587))
(define-fun .def_589 () Bool (and .def_97 .def_588))
(define-fun .def_590 () Bool (and .def_339 .def_589))
(define-fun .def_591 () Bool (and .def_99 .def_590))
(define-fun .def_592 () Bool (and .def_101 .def_591))
(define-fun .def_593 () Bool (and .def_103 .def_592))
(define-fun .def_594 () Bool (and .def_105 .def_593))
(define-fun .def_599 () Bool (and .def_594 .def_598))
(define-fun .def_675 () Bool (or .def_599 .def_674))
(define-fun .def_676 () Bool (and .def_94 .def_675))
(define-fun .def_578 () Bool (= .x.809 0))
(define-fun .def_579 () Bool (or .def_76 .def_578))
(define-fun .def_347 () Bool (and .def_177 .def_182))
(define-fun .def_348 () Bool (and .def_184 .def_347))
(define-fun .def_562 () Bool (and .def_190 .def_348))
(define-fun .def_563 () Bool (and .def_192 .def_562))
(define-fun .def_564 () Bool (and .def_194 .def_563))
(define-fun .def_565 () Bool (and .def_196 .def_564))
(define-fun .def_566 () Bool (and .def_198 .def_565))
(define-fun .def_567 () Bool (and .def_200 .def_566))
(define-fun .def_568 () Bool (and .def_89 .def_567))
(define-fun .def_569 () Bool (and .def_91 .def_568))
(define-fun .def_570 () Bool (and .def_78 .def_569))
(define-fun .def_571 () Bool (and .def_80 .def_570))
(define-fun .def_572 () Bool (and .def_82 .def_571))
(define-fun .def_573 () Bool (and .def_97 .def_572))
(define-fun .def_574 () Bool (and .def_339 .def_573))
(define-fun .def_575 () Bool (and .def_99 .def_574))
(define-fun .def_576 () Bool (and .def_101 .def_575))
(define-fun .def_577 () Bool (and .def_105 .def_576))
(define-fun .def_580 () Bool (and .def_577 .def_579))
(define-fun .def_677 () Bool (or .def_580 .def_676))
(define-fun .def_290 () Bool (and .def_76 .def_173))
(define-fun .def_520 () Bool (and .def_172 .def_290))
(define-fun .def_521 () Bool (and .def_175 .def_520))
(define-fun .def_522 () Bool (and .def_86 .def_521))
(define-fun .def_523 () Bool (and .def_182 .def_522))
(define-fun .def_524 () Bool (and .def_184 .def_523))
(define-fun .def_525 () Bool (and .def_186 .def_524))
(define-fun .def_526 () Bool (and .def_190 .def_525))
(define-fun .def_527 () Bool (and .def_192 .def_526))
(define-fun .def_528 () Bool (and .def_194 .def_527))
(define-fun .def_529 () Bool (and .def_196 .def_528))
(define-fun .def_530 () Bool (and .def_198 .def_529))
(define-fun .def_531 () Bool (and .def_200 .def_530))
(define-fun .def_532 () Bool (and .def_89 .def_531))
(define-fun .def_533 () Bool (and .def_91 .def_532))
(define-fun .def_554 () Bool (and .def_84 .def_533))
(define-fun .def_555 () Bool (and .def_209 .def_554))
(define-fun .def_556 () Bool (and .def_94 .def_555))
(define-fun .def_557 () Bool (and .loc.9 .def_556))
(define-fun .def_558 () Bool (and .loc.10 .def_557))
(define-fun .def_559 () Bool (and .def_99 .def_558))
(define-fun .def_560 () Bool (and .def_101 .def_559))
(define-fun .def_561 () Bool (and .def_103 .def_560))
(define-fun .def_678 () Bool (or .def_561 .def_677))
(define-fun .def_552 () Bool (or .def_76 .def_551))
(define-fun .def_349 () Bool (and .def_186 .def_348))
(define-fun .def_483 () Bool (and .def_190 .def_349))
(define-fun .def_484 () Bool (and .def_192 .def_483))
(define-fun .def_485 () Bool (and .def_194 .def_484))
(define-fun .def_486 () Bool (and .def_196 .def_485))
(define-fun .def_487 () Bool (and .def_198 .def_486))
(define-fun .def_488 () Bool (and .def_200 .def_487))
(define-fun .def_489 () Bool (and .def_89 .def_488))
(define-fun .def_490 () Bool (and .def_91 .def_489))
(define-fun .def_543 () Bool (and .def_84 .def_490))
(define-fun .def_544 () Bool (and .def_209 .def_543))
(define-fun .def_545 () Bool (and .def_94 .def_544))
(define-fun .def_546 () Bool (and .loc.9 .def_545))
(define-fun .def_547 () Bool (and .loc.10 .def_546))
(define-fun .def_548 () Bool (and .def_99 .def_547))
(define-fun .def_549 () Bool (and .def_101 .def_548))
(define-fun .def_550 () Bool (and .def_103 .def_549))
(define-fun .def_553 () Bool (and .def_550 .def_552))
(define-fun .def_679 () Bool (or .def_553 .def_678))
(define-fun .def_680 () Bool (and .loc.12 .def_679))
(define-fun .def_534 () Bool (and .def_80 .def_533))
(define-fun .def_535 () Bool (and .def_82 .def_534))
(define-fun .def_536 () Bool (and .def_209 .def_535))
(define-fun .def_537 () Bool (and .loc.9 .def_536))
(define-fun .def_538 () Bool (and .loc.10 .def_537))
(define-fun .def_539 () Bool (and .loc.11 .def_538))
(define-fun .def_540 () Bool (and .def_99 .def_539))
(define-fun .def_541 () Bool (and .def_105 .def_540))
(define-fun .def_107 () Bool (not .loc.12))
(define-fun .def_542 () Bool (and .def_107 .def_541))
(define-fun .def_681 () Bool (or .def_542 .def_680))
(define-fun .def_491 () Bool (and .def_80 .def_490))
(define-fun .def_492 () Bool (and .def_82 .def_491))
(define-fun .def_493 () Bool (and .def_209 .def_492))
(define-fun .def_513 () Bool (and .loc.9 .def_493))
(define-fun .def_514 () Bool (and .loc.10 .def_513))
(define-fun .def_515 () Bool (and .loc.11 .def_514))
(define-fun .def_516 () Bool (and .def_99 .def_515))
(define-fun .def_517 () Bool (and .def_105 .def_516))
(define-fun .def_518 () Bool (and .def_107 .def_517))
(define-fun .def_384 () Bool (<= 100000 .def_44))
(define-fun .def_413 () Bool (or .def_76 .def_384))
(define-fun .def_519 () Bool (and .def_413 .def_518))
(define-fun .def_682 () Bool (or .def_519 .def_681))
(define-fun .def_180 () Bool (= .def_44 .x.805))
(define-fun .def_87 () Bool (= .def_14 .x.790))
(define-fun .def_510 () Bool (and .def_87 .def_180))
(define-fun .def_188 () Bool (= .def_54 .x.810))
(define-fun .def_511 () Bool (and .def_188 .def_510))
(define-fun .def_204 () Bool (= .def_72 .x.819))
(define-fun .def_512 () Bool (and .def_204 .def_511))
(define-fun .def_683 () Bool (and .def_512 .def_682))
(define-fun .def_374 () Int (* 4 .def_44))
(define-fun .def_501 () Int (+ .def_32 .def_374))
(define-fun .def_502 () (Array Int Int) (select .def_14 .def_64))
(define-fun .def_503 () Int (select .def_502 .def_501))
(define-fun .def_380 () Int (+ .def_374 .def_62))
(define-fun .def_504 () (Array Int Int) (store .def_379 .def_380 .def_503))
(define-fun .def_505 () (Array Int (Array Int Int)) (store .def_14 .def_34 .def_504))
(define-fun .def_506 () Bool (= .x.790 .def_505))
(define-fun .def_385 () Bool (not .def_384))
(define-fun .def_507 () Bool (and .def_385 .def_506))
(define-fun .def_508 () Bool (or .def_76 .def_507))
(define-fun .def_494 () Bool (and .loc.10 .def_493))
(define-fun .def_495 () Bool (and .loc.11 .def_494))
(define-fun .def_496 () Bool (and .def_97 .def_495))
(define-fun .def_497 () Bool (and .def_99 .def_496))
(define-fun .def_498 () Bool (and .def_105 .def_497))
(define-fun .def_499 () Bool (and .def_107 .def_498))
(define-fun .def_369 () Int (* (- 1) .x.805))
(define-fun .def_370 () Int (+ .def_44 .def_369))
(define-fun .def_371 () Bool (= .def_370 (- 1)))
(define-fun .def_372 () Bool (or I1_23 .def_371))
(define-fun .def_500 () Bool (and .def_372 .def_499))
(define-fun .def_509 () Bool (and .def_500 .def_508))
(define-fun .def_684 () Bool (or .def_509 .def_683))
(define-fun .def_480 () Bool (not .def_479))
(define-fun .def_481 () Bool (or .def_76 .def_480))
(define-fun .def_259 () Bool (and .def_87 .def_173))
(define-fun .def_260 () Bool (and .def_172 .def_259))
(define-fun .def_261 () Bool (and .def_175 .def_260))
(define-fun .def_262 () Bool (and .def_86 .def_261))
(define-fun .def_390 () Bool (and .def_180 .def_262))
(define-fun .def_391 () Bool (and .def_182 .def_390))
(define-fun .def_392 () Bool (and .def_184 .def_391))
(define-fun .def_393 () Bool (and .def_186 .def_392))
(define-fun .def_394 () Bool (and .def_188 .def_393))
(define-fun .def_395 () Bool (and .def_190 .def_394))
(define-fun .def_396 () Bool (and .def_192 .def_395))
(define-fun .def_397 () Bool (and .def_194 .def_396))
(define-fun .def_398 () Bool (and .def_196 .def_397))
(define-fun .def_399 () Bool (and .def_198 .def_398))
(define-fun .def_400 () Bool (and .def_200 .def_399))
(define-fun .def_401 () Bool (and .def_89 .def_400))
(define-fun .def_402 () Bool (and .def_91 .def_401))
(define-fun .def_403 () Bool (and .def_204 .def_402))
(define-fun .def_470 () Bool (and .def_78 .def_403))
(define-fun .def_471 () Bool (and .def_84 .def_470))
(define-fun .def_472 () Bool (and .def_94 .def_471))
(define-fun .def_473 () Bool (and .def_97 .def_472))
(define-fun .def_474 () Bool (and .def_339 .def_473))
(define-fun .def_475 () Bool (and .def_99 .def_474))
(define-fun .def_476 () Bool (and .def_101 .def_475))
(define-fun .def_477 () Bool (and .def_103 .def_476))
(define-fun .def_478 () Bool (and .def_107 .def_477))
(define-fun .def_482 () Bool (and .def_478 .def_481))
(define-fun .def_685 () Bool (or .def_482 .def_684))
(define-fun .def_291 () Bool (and .def_87 .def_290))
(define-fun .def_292 () Bool (and .def_172 .def_291))
(define-fun .def_293 () Bool (and .def_175 .def_292))
(define-fun .def_294 () Bool (and .def_86 .def_293))
(define-fun .def_415 () Bool (and .def_180 .def_294))
(define-fun .def_416 () Bool (and .def_182 .def_415))
(define-fun .def_417 () Bool (and .def_184 .def_416))
(define-fun .def_418 () Bool (and .def_186 .def_417))
(define-fun .def_419 () Bool (and .def_188 .def_418))
(define-fun .def_420 () Bool (and .def_190 .def_419))
(define-fun .def_421 () Bool (and .def_192 .def_420))
(define-fun .def_422 () Bool (and .def_194 .def_421))
(define-fun .def_423 () Bool (and .def_196 .def_422))
(define-fun .def_424 () Bool (and .def_198 .def_423))
(define-fun .def_425 () Bool (and .def_200 .def_424))
(define-fun .def_426 () Bool (and .def_89 .def_425))
(define-fun .def_427 () Bool (and .def_91 .def_426))
(define-fun .def_428 () Bool (and .def_204 .def_427))
(define-fun .def_461 () Bool (and .def_80 .def_428))
(define-fun .def_462 () Bool (and .def_84 .def_461))
(define-fun .def_463 () Bool (and .def_209 .def_462))
(define-fun .def_464 () Bool (and .def_94 .def_463))
(define-fun .def_465 () Bool (and .def_97 .def_464))
(define-fun .def_466 () Bool (and .def_339 .def_465))
(define-fun .def_467 () Bool (and .def_99 .def_466))
(define-fun .def_468 () Bool (and .def_101 .def_467))
(define-fun .def_469 () Bool (and .def_107 .def_468))
(define-fun .def_686 () Bool (or .def_469 .def_685))
(define-fun .def_438 () Bool (and .def_182 .def_262))
(define-fun .def_439 () Bool (and .def_184 .def_438))
(define-fun .def_440 () Bool (and .def_186 .def_439))
(define-fun .def_441 () Bool (and .def_188 .def_440))
(define-fun .def_442 () Bool (and .def_190 .def_441))
(define-fun .def_443 () Bool (and .def_192 .def_442))
(define-fun .def_444 () Bool (and .def_194 .def_443))
(define-fun .def_445 () Bool (and .def_196 .def_444))
(define-fun .def_446 () Bool (and .def_198 .def_445))
(define-fun .def_447 () Bool (and .def_200 .def_446))
(define-fun .def_448 () Bool (and .def_89 .def_447))
(define-fun .def_449 () Bool (and .def_91 .def_448))
(define-fun .def_450 () Bool (and .def_204 .def_449))
(define-fun .def_451 () Bool (and .def_78 .def_450))
(define-fun .def_452 () Bool (and .def_82 .def_451))
(define-fun .def_453 () Bool (and .loc.10 .def_452))
(define-fun .def_454 () Bool (and .loc.11 .def_453))
(define-fun .def_455 () Bool (and .def_97 .def_454))
(define-fun .def_456 () Bool (and .def_99 .def_455))
(define-fun .def_457 () Bool (and .def_103 .def_456))
(define-fun .def_458 () Bool (and .def_105 .def_457))
(define-fun .def_459 () Bool (and .def_107 .def_458))
(define-fun .def_344 () Bool (= .x.805 0))
(define-fun .def_345 () Bool (or .def_76 .def_344))
(define-fun .def_460 () Bool (and .def_345 .def_459))
(define-fun .def_687 () Bool (or .def_460 .def_686))
(define-fun .def_429 () Bool (and .def_82 .def_428))
(define-fun .def_430 () Bool (and .def_209 .def_429))
(define-fun .def_431 () Bool (and .loc.9 .def_430))
(define-fun .def_432 () Bool (and .loc.11 .def_431))
(define-fun .def_433 () Bool (and .def_339 .def_432))
(define-fun .def_434 () Bool (and .def_99 .def_433))
(define-fun .def_435 () Bool (and .def_103 .def_434))
(define-fun .def_436 () Bool (and .def_105 .def_435))
(define-fun .def_437 () Bool (and .def_107 .def_436))
(define-fun .def_688 () Bool (or .def_437 .def_687))
(define-fun .def_404 () Bool (and .def_82 .def_403))
(define-fun .def_405 () Bool (and .def_209 .def_404))
(define-fun .def_406 () Bool (and .loc.9 .def_405))
(define-fun .def_407 () Bool (and .loc.11 .def_406))
(define-fun .def_408 () Bool (and .def_339 .def_407))
(define-fun .def_409 () Bool (and .def_99 .def_408))
(define-fun .def_410 () Bool (and .def_103 .def_409))
(define-fun .def_411 () Bool (and .def_105 .def_410))
(define-fun .def_412 () Bool (and .def_107 .def_411))
(define-fun .def_414 () Bool (and .def_412 .def_413))
(define-fun .def_689 () Bool (or .def_414 .def_688))
(define-fun .def_206 () Bool (= .def_74 .x.820))
(define-fun .def_178 () Bool (= .def_42 .x.804))
(define-fun .def_389 () Bool (and .def_178 .def_206))
(define-fun .def_690 () Bool (and .def_389 .def_689))
(define-fun .def_376 () Int (+ .def_374 .def_58))
(define-fun .def_377 () Int (select .def_241 .def_376))
(define-fun .def_381 () (Array Int Int) (store .def_379 .def_380 .def_377))
(define-fun .def_382 () (Array Int (Array Int Int)) (store .def_14 .def_34 .def_381))
(define-fun .def_383 () Bool (= .x.790 .def_382))
(define-fun .def_386 () Bool (and .def_383 .def_385))
(define-fun .def_387 () Bool (or .def_76 .def_386))
(define-fun .def_350 () Bool (and .def_188 .def_349))
(define-fun .def_351 () Bool (and .def_190 .def_350))
(define-fun .def_352 () Bool (and .def_192 .def_351))
(define-fun .def_353 () Bool (and .def_194 .def_352))
(define-fun .def_354 () Bool (and .def_196 .def_353))
(define-fun .def_355 () Bool (and .def_198 .def_354))
(define-fun .def_356 () Bool (and .def_200 .def_355))
(define-fun .def_357 () Bool (and .def_89 .def_356))
(define-fun .def_358 () Bool (and .def_91 .def_357))
(define-fun .def_359 () Bool (and .def_204 .def_358))
(define-fun .def_360 () Bool (and .def_82 .def_359))
(define-fun .def_361 () Bool (and .def_209 .def_360))
(define-fun .def_362 () Bool (and .loc.11 .def_361))
(define-fun .def_363 () Bool (and .def_97 .def_362))
(define-fun .def_364 () Bool (and .def_339 .def_363))
(define-fun .def_365 () Bool (and .def_99 .def_364))
(define-fun .def_366 () Bool (and .def_103 .def_365))
(define-fun .def_367 () Bool (and .def_105 .def_366))
(define-fun .def_368 () Bool (and .def_107 .def_367))
(define-fun .def_373 () Bool (and .def_368 .def_372))
(define-fun .def_388 () Bool (and .def_373 .def_387))
(define-fun .def_691 () Bool (or .def_388 .def_690))
(define-fun .def_263 () Bool (and .def_178 .def_262))
(define-fun .def_320 () Bool (and .def_182 .def_263))
(define-fun .def_321 () Bool (and .def_184 .def_320))
(define-fun .def_322 () Bool (and .def_186 .def_321))
(define-fun .def_323 () Bool (and .def_188 .def_322))
(define-fun .def_324 () Bool (and .def_190 .def_323))
(define-fun .def_325 () Bool (and .def_192 .def_324))
(define-fun .def_326 () Bool (and .def_194 .def_325))
(define-fun .def_327 () Bool (and .def_196 .def_326))
(define-fun .def_328 () Bool (and .def_198 .def_327))
(define-fun .def_329 () Bool (and .def_200 .def_328))
(define-fun .def_330 () Bool (and .def_89 .def_329))
(define-fun .def_331 () Bool (and .def_91 .def_330))
(define-fun .def_332 () Bool (and .def_204 .def_331))
(define-fun .def_333 () Bool (and .def_206 .def_332))
(define-fun .def_334 () Bool (and .def_78 .def_333))
(define-fun .def_335 () Bool (and .def_80 .def_334))
(define-fun .def_336 () Bool (and .def_94 .def_335))
(define-fun .def_337 () Bool (and .loc.11 .def_336))
(define-fun .def_338 () Bool (and .def_97 .def_337))
(define-fun .def_340 () Bool (and .def_338 .def_339))
(define-fun .def_341 () Bool (and .def_99 .def_340))
(define-fun .def_342 () Bool (and .def_105 .def_341))
(define-fun .def_343 () Bool (and .def_107 .def_342))
(define-fun .def_346 () Bool (and .def_343 .def_345))
(define-fun .def_692 () Bool (or .def_346 .def_691))
(define-fun .def_295 () Bool (and .def_178 .def_294))
(define-fun .def_296 () Bool (and .def_180 .def_295))
(define-fun .def_297 () Bool (and .def_182 .def_296))
(define-fun .def_298 () Bool (and .def_184 .def_297))
(define-fun .def_299 () Bool (and .def_186 .def_298))
(define-fun .def_300 () Bool (and .def_188 .def_299))
(define-fun .def_301 () Bool (and .def_190 .def_300))
(define-fun .def_302 () Bool (and .def_192 .def_301))
(define-fun .def_303 () Bool (and .def_194 .def_302))
(define-fun .def_304 () Bool (and .def_196 .def_303))
(define-fun .def_305 () Bool (and .def_198 .def_304))
(define-fun .def_306 () Bool (and .def_200 .def_305))
(define-fun .def_307 () Bool (and .def_89 .def_306))
(define-fun .def_308 () Bool (and .def_91 .def_307))
(define-fun .def_309 () Bool (and .def_204 .def_308))
(define-fun .def_310 () Bool (and .def_206 .def_309))
(define-fun .def_311 () Bool (and .def_80 .def_310))
(define-fun .def_312 () Bool (and .def_209 .def_311))
(define-fun .def_313 () Bool (and .def_94 .def_312))
(define-fun .def_314 () Bool (and .loc.9 .def_313))
(define-fun .def_315 () Bool (and .loc.10 .def_314))
(define-fun .def_316 () Bool (and .def_99 .def_315))
(define-fun .def_317 () Bool (and .def_101 .def_316))
(define-fun .def_318 () Bool (and .def_105 .def_317))
(define-fun .def_319 () Bool (and .def_107 .def_318))
(define-fun .def_693 () Bool (or .def_319 .def_692))
(define-fun .def_229 () Bool (<= 100000 .def_36))
(define-fun .def_288 () Bool (or .def_76 .def_229))
(define-fun .def_264 () Bool (and .def_180 .def_263))
(define-fun .def_265 () Bool (and .def_182 .def_264))
(define-fun .def_266 () Bool (and .def_184 .def_265))
(define-fun .def_267 () Bool (and .def_186 .def_266))
(define-fun .def_268 () Bool (and .def_188 .def_267))
(define-fun .def_269 () Bool (and .def_190 .def_268))
(define-fun .def_270 () Bool (and .def_192 .def_269))
(define-fun .def_271 () Bool (and .def_194 .def_270))
(define-fun .def_272 () Bool (and .def_196 .def_271))
(define-fun .def_273 () Bool (and .def_198 .def_272))
(define-fun .def_274 () Bool (and .def_200 .def_273))
(define-fun .def_275 () Bool (and .def_89 .def_274))
(define-fun .def_276 () Bool (and .def_91 .def_275))
(define-fun .def_277 () Bool (and .def_204 .def_276))
(define-fun .def_278 () Bool (and .def_206 .def_277))
(define-fun .def_279 () Bool (and .def_80 .def_278))
(define-fun .def_280 () Bool (and .def_209 .def_279))
(define-fun .def_281 () Bool (and .def_94 .def_280))
(define-fun .def_282 () Bool (and .loc.9 .def_281))
(define-fun .def_283 () Bool (and .loc.10 .def_282))
(define-fun .def_284 () Bool (and .def_99 .def_283))
(define-fun .def_285 () Bool (and .def_101 .def_284))
(define-fun .def_286 () Bool (and .def_105 .def_285))
(define-fun .def_287 () Bool (and .def_107 .def_286))
(define-fun .def_289 () Bool (and .def_287 .def_288))
(define-fun .def_694 () Bool (or .def_289 .def_693))
(define-fun .def_257 () Bool (= .def_46 .x.806))
(define-fun .def_255 () Bool (= .def_40 .x.803))
(define-fun .def_253 () Bool (= .def_30 .x.798))
(define-fun .def_252 () Bool (= .def_36 .x.801))
(define-fun .def_254 () Bool (and .def_252 .def_253))
(define-fun .def_256 () Bool (and .def_254 .def_255))
(define-fun .def_258 () Bool (and .def_256 .def_257))
(define-fun .def_695 () Bool (and .def_258 .def_694))
(define-fun .def_238 () Int (* 4 .def_36))
(define-fun .def_239 () Int (+ .def_32 .def_238))
(define-fun .def_242 () Int (+ .def_238 .def_58))
(define-fun .def_243 () (Array Int Int) (store .def_241 .def_242 .def_30))
(define-fun .def_244 () (Array Int (Array Int Int)) (store .def_14 .def_50 .def_243))
(define-fun .def_245 () (Array Int Int) (select .def_244 .def_64))
(define-fun .def_246 () (Array Int Int) (store .def_245 .def_239 .def_40))
(define-fun .def_247 () (Array Int (Array Int Int)) (store .def_244 .def_64 .def_246))
(define-fun .def_248 () Bool (= .x.790 .def_247))
(define-fun .def_235 () Bool (<= (- 2147483648) .def_40))
(define-fun .def_233 () Bool (<= (- 2147483648) .def_30))
(define-fun .def_230 () Bool (not .def_229))
(define-fun .def_226 () Bool (<= .def_30 2147483647))
(define-fun .def_225 () Bool (<= .def_40 2147483647))
(define-fun .def_227 () Bool (and .def_225 .def_226))
(define-fun .def_231 () Bool (and .def_227 .def_230))
(define-fun .def_234 () Bool (and .def_231 .def_233))
(define-fun .def_236 () Bool (and .def_234 .def_235))
(define-fun .def_249 () Bool (and .def_236 .def_248))
(define-fun .def_250 () Bool (or .def_76 .def_249))
(define-fun .def_219 () Int (* (- 1) .x.801))
(define-fun .def_220 () Int (+ .def_36 .def_219))
(define-fun .def_221 () Bool (= .def_220 (- 1)))
(define-fun .def_222 () Bool (or I1_23 .def_221))
(define-fun .def_179 () Bool (and .def_177 .def_178))
(define-fun .def_181 () Bool (and .def_179 .def_180))
(define-fun .def_183 () Bool (and .def_181 .def_182))
(define-fun .def_185 () Bool (and .def_183 .def_184))
(define-fun .def_187 () Bool (and .def_185 .def_186))
(define-fun .def_189 () Bool (and .def_187 .def_188))
(define-fun .def_191 () Bool (and .def_189 .def_190))
(define-fun .def_193 () Bool (and .def_191 .def_192))
(define-fun .def_195 () Bool (and .def_193 .def_194))
(define-fun .def_197 () Bool (and .def_195 .def_196))
(define-fun .def_199 () Bool (and .def_197 .def_198))
(define-fun .def_201 () Bool (and .def_199 .def_200))
(define-fun .def_202 () Bool (and .def_89 .def_201))
(define-fun .def_203 () Bool (and .def_91 .def_202))
(define-fun .def_205 () Bool (and .def_203 .def_204))
(define-fun .def_207 () Bool (and .def_205 .def_206))
(define-fun .def_208 () Bool (and .def_80 .def_207))
(define-fun .def_210 () Bool (and .def_208 .def_209))
(define-fun .def_211 () Bool (and .def_94 .def_210))
(define-fun .def_212 () Bool (and .loc.10 .def_211))
(define-fun .def_213 () Bool (and .def_97 .def_212))
(define-fun .def_214 () Bool (and .def_99 .def_213))
(define-fun .def_215 () Bool (and .def_101 .def_214))
(define-fun .def_216 () Bool (and .def_105 .def_215))
(define-fun .def_217 () Bool (and .def_107 .def_216))
(define-fun .def_223 () Bool (and .def_217 .def_222))
(define-fun .def_251 () Bool (and .def_223 .def_250))
(define-fun .def_696 () Bool (or .def_251 .def_695))
(define-fun .def_170 () Bool (= .def_26 .x.796))
(define-fun .def_168 () Bool (= .def_18 .x.792))
(define-fun .def_167 () Bool (= .def_22 .x.794))
(define-fun .def_169 () Bool (and .def_167 .def_168))
(define-fun .def_171 () Bool (and .def_169 .def_170))
(define-fun .def_697 () Bool (and .def_171 .def_696))
(define-fun .def_162 () Bool (= .x.796 0))
(define-fun .def_161 () Bool (= .x.792 0))
(define-fun .def_163 () Bool (and .def_161 .def_162))
(define-fun .def_159 () (Array Int Int) (store .def_10 0 0))
(define-fun .def_160 () Bool (= .def_110 .def_159))
(define-fun .def_164 () Bool (and .def_160 .def_163))
(define-fun .def_165 () Bool (or .def_76 .def_164))
(define-fun .def_141 () Bool (<= .x.787 .x.815))
(define-fun .def_142 () Bool (not .def_141))
(define-fun .def_139 () Bool (<= .x.787 .x.800))
(define-fun .def_140 () Bool (not .def_139))
(define-fun .def_143 () Bool (and .def_140 .def_142))
(define-fun .def_137 () Bool (<= .x.787 .x.808))
(define-fun .def_138 () Bool (not .def_137))
(define-fun .def_144 () Bool (and .def_138 .def_143))
(define-fun .def_136 () Bool (= .x.799 0))
(define-fun .def_145 () Bool (and .def_136 .def_144))
(define-fun .def_135 () Bool (= .x.801 0))
(define-fun .def_146 () Bool (and .def_135 .def_145))
(define-fun .def_134 () Bool (= .x.814 0))
(define-fun .def_147 () Bool (and .def_134 .def_146))
(define-fun .def_133 () Bool (= .x.812 0))
(define-fun .def_148 () Bool (and .def_133 .def_147))
(define-fun .def_131 () Bool (= .x.800 0))
(define-fun .def_132 () Bool (not .def_131))
(define-fun .def_149 () Bool (and .def_132 .def_148))
(define-fun .def_129 () Bool (= .x.815 0))
(define-fun .def_130 () Bool (not .def_129))
(define-fun .def_150 () Bool (and .def_130 .def_149))
(define-fun .def_127 () Bool (= .x.808 0))
(define-fun .def_128 () Bool (not .def_127))
(define-fun .def_151 () Bool (and .def_128 .def_150))
(define-fun .def_125 () Int (select .def_110 .x.808))
(define-fun .def_126 () Bool (= .def_125 0))
(define-fun .def_152 () Bool (and .def_126 .def_151))
(define-fun .def_111 () (Array Int Int) (store .def_110 .x.808 1))
(define-fun .def_123 () Int (select .def_111 .x.815))
(define-fun .def_124 () Bool (= .def_123 0))
(define-fun .def_153 () Bool (and .def_124 .def_152))
(define-fun .def_112 () (Array Int Int) (store .def_111 .x.815 1))
(define-fun .def_121 () Int (select .def_112 .x.800))
(define-fun .def_122 () Bool (= .def_121 0))
(define-fun .def_154 () Bool (and .def_122 .def_153))
(define-fun .def_116 () (Array Int Int) (store .def_22 .x.808 400000))
(define-fun .def_117 () (Array Int Int) (store .def_116 .x.815 400000))
(define-fun .def_118 () (Array Int Int) (store .def_117 .x.800 400000))
(define-fun .def_119 () Bool (= .x.794 .def_118))
(define-fun .def_155 () Bool (and .def_119 .def_154))
(define-fun .def_113 () (Array Int Int) (store .def_112 .x.800 1))
(define-fun .def_114 () Bool (= .x.788 .def_113))
(define-fun .def_156 () Bool (and .def_114 .def_155))
(define-fun .def_157 () Bool (or I1_23 .def_156))
(define-fun .def_88 () Bool (and .def_86 .def_87))
(define-fun .def_90 () Bool (and .def_88 .def_89))
(define-fun .def_92 () Bool (and .def_90 .def_91))
(define-fun .def_93 () Bool (and .def_78 .def_92))
(define-fun .def_95 () Bool (and .def_93 .def_94))
(define-fun .def_96 () Bool (and .loc.10 .def_95))
(define-fun .def_98 () Bool (and .def_96 .def_97))
(define-fun .def_100 () Bool (and .def_98 .def_99))
(define-fun .def_102 () Bool (and .def_100 .def_101))
(define-fun .def_104 () Bool (and .def_102 .def_103))
(define-fun .def_106 () Bool (and .def_104 .def_105))
(define-fun .def_108 () Bool (and .def_106 .def_107))
(define-fun .def_158 () Bool (and .def_108 .def_157))
(define-fun .def_166 () Bool (and .def_158 .def_165))
(define-fun .def_698 () Bool (or .def_166 .def_697))
(define-fun .def_710 () Bool (! (and .def_698 .def_709) :trans true))
(define-fun .def_726 () Bool (and .def_103 .def_209))
(define-fun .def_727 () Bool (and .def_82 .def_726))
(define-fun .def_728 () Bool (and .def_84 .def_727))
(define-fun .def_729 () Bool (and .def_76 .def_728))
(define-fun .def_730 () Bool (! (not .def_729) :invar-property 0))
(assert true)
